db/data/14942487827262021470962783527620812.z3.out
-------------------
2500.115524730
